\ENCODING=ISO-8859-1
\Problem name: 

Minimize
 obj1: y0
Subject To
 c0:   y0 + 22 y_1_2 + 18 y_1_3 + 14 y_1_4 + 22 y_1_5 + 15 y_2_1 + 11 y_2_2
       + 20 y_2_3 + 8 y_2_4 + 14 y_2_5 + 4 y_3_1 + 22 y_3_2 + 10 y_3_3
       + 25 y_3_5 + 14 y_4_1 + 23 y_4_2 + 23 y_4_3 + 5 y_4_4 + 22 y_4_5
       + 8 y_5_1 + 23 y_5_2 + 14 y_5_3 + 5 y_5_4 + 11 y_5_5 + 18 y_6_1
       + 5 y_6_2 + 2 y_6_3 + 23 y_6_4 + 6 y_6_5 + 6 y_7_1 + 8 y_7_2 + 22 y_7_3
       + 3 y_7_4 + 15 y_7_5 + 14 y_8_1 + 21 y_8_2 + 6 y_8_3 + 16 y_8_4
       + 14 y_8_5 + 21 y_9_1 + 6 y_9_2 + y_9_3 + 8 y_9_4 + 3 y_9_5 + 16 y_10_1
       + 14 y_10_2 + 13 y_10_3 + 12 y_10_4 + 22 y_10_5 + 8 y_11_1 + 20 y_11_2
       + 15 y_11_3 + 15 y_11_4 + 12 y_11_5 + 11 y_12_1 + 4 y_12_2 + 9 y_12_3
       + 15 y_12_4 + 11 y_12_5 + 2 y_13_1 + 19 y_13_2 + 13 y_13_3 + 2 y_13_4
       + 9 y_13_5 + 15 y_14_1 + 20 y_14_2 + 17 y_14_3 + 16 y_14_5 + 6 y_15_1
       + y_15_2 + 21 y_15_3 + 23 y_15_4 + y_15_5 + 11 y_16_1 + 21 y_16_2
       + 2 y_16_3 + 15 y_16_4 + 17 y_16_5 + 17 y_17_1 + 17 y_17_2 + 3 y_17_3
       + 13 y_17_4 + 3 y_17_5 + 15 y_18_1 + 5 y_18_2 + 14 y_18_3 + 19 y_18_4
       + 7 y_18_5 + 10 y_19_1 + 8 y_19_2 + 8 y_19_4 + 14 y_19_5 + 22 y_20_1
       + 24 y_20_2 + 23 y_20_3 + 14 y_20_4 + 15 y_20_5 + 14 y_21_1 + 13 y_21_2
       + 8 y_21_3 + 2 y_21_4 + 23 y_21_5 + 21 y_22_1 + 12 y_22_2 + 10 y_22_3
       + 12 y_22_4 + 17 y_22_5 + 2 y_23_1 + 10 y_23_2 + 13 y_23_3 + 10 y_23_4
       + 9 y_23_5 + 20 y_24_1 + 21 y_24_2 + 9 y_24_3 + 20 y_24_4 + 21 y_24_5
       + 23 y_25_1 + 18 y_25_2 + 2 y_25_3 + 9 y_25_4 + 23 y_25_5 - 1000 x_1_0
       - 1000 x_2_0 - 1000 x_3_0 - 1000 x_4_0 - 1000 x_5_0  = 0
 c2:   15 y_2_1 + 4 y_3_1 + 14 y_4_1 + 8 y_5_1 + 18 y_6_1 + 6 y_7_1 + 14 y_8_1
       + 21 y_9_1 + 16 y_10_1 + 8 y_11_1 + 11 y_12_1 + 2 y_13_1 + 15 y_14_1
       + 6 y_15_1 + 11 y_16_1 + 17 y_17_1 + 15 y_18_1 + 10 y_19_1 + 22 y_20_1
       + 14 y_21_1 + 21 y_22_1 + 2 y_23_1 + 20 y_24_1 + 23 y_25_1 - x_1_0 <= 0
 c3:   22 y_1_2 + 11 y_2_2 + 22 y_3_2 + 23 y_4_2 + 23 y_5_2 + 5 y_6_2 + 8 y_7_2
       + 21 y_8_2 + 6 y_9_2 + 14 y_10_2 + 20 y_11_2 + 4 y_12_2 + 19 y_13_2
       + 20 y_14_2 + y_15_2 + 21 y_16_2 + 17 y_17_2 + 5 y_18_2 + 8 y_19_2
       + 24 y_20_2 + 13 y_21_2 + 12 y_22_2 + 10 y_23_2 + 21 y_24_2 + 18 y_25_2
       - x_2_0 <= 188
 c4:   18 y_1_3 + 20 y_2_3 + 10 y_3_3 + 23 y_4_3 + 14 y_5_3 + 2 y_6_3
       + 22 y_7_3 + 6 y_8_3 + y_9_3 + 13 y_10_3 + 15 y_11_3 + 9 y_12_3
       + 13 y_13_3 + 17 y_14_3 + 21 y_15_3 + 2 y_16_3 + 3 y_17_3 + 14 y_18_3
       + 23 y_20_3 + 8 y_21_3 + 10 y_22_3 + 13 y_23_3 + 9 y_24_3 + 2 y_25_3
       - x_3_0 <= 188
 c5:   14 y_1_4 + 8 y_2_4 + 5 y_4_4 + 5 y_5_4 + 23 y_6_4 + 3 y_7_4 + 16 y_8_4
       + 8 y_9_4 + 12 y_10_4 + 15 y_11_4 + 15 y_12_4 + 2 y_13_4 + 23 y_15_4
       + 15 y_16_4 + 13 y_17_4 + 19 y_18_4 + 8 y_19_4 + 14 y_20_4 + 2 y_21_4
       + 12 y_22_4 + 10 y_23_4 + 20 y_24_4 + 9 y_25_4 - x_4_0 <= 0
 c6:   22 y_1_5 + 14 y_2_5 + 25 y_3_5 + 22 y_4_5 + 11 y_5_5 + 6 y_6_5
       + 15 y_7_5 + 14 y_8_5 + 3 y_9_5 + 22 y_10_5 + 12 y_11_5 + 11 y_12_5
       + 9 y_13_5 + 16 y_14_5 + y_15_5 + 17 y_16_5 + 3 y_17_5 + 7 y_18_5
       + 14 y_19_5 + 15 y_20_5 + 23 y_21_5 + 17 y_22_5 + 9 y_23_5 + 21 y_24_5
       + 23 y_25_5 - x_5_0 <= 0
 c7:   y_1_1 + y_1_2 + y_1_3 + y_1_4 + y_1_5  = 1
 c8:   y_2_1 + y_2_2 + y_2_3 + y_2_4 + y_2_5  = 0
 c9:   y_3_1 + y_3_2 + y_3_3 + y_3_4 + y_3_5  = 1
 c10:  y_4_1 + y_4_2 + y_4_3 + y_4_4 + y_4_5  = 1
 c11:  y_5_1 + y_5_2 + y_5_3 + y_5_4 + y_5_5  = 1
 c12:  y_6_1 + y_6_2 + y_6_3 + y_6_4 + y_6_5  = 0
 c13:  y_7_1 + y_7_2 + y_7_3 + y_7_4 + y_7_5  = 0
 c14:  y_8_1 + y_8_2 + y_8_3 + y_8_4 + y_8_5  = 0
 c15:  y_9_1 + y_9_2 + y_9_3 + y_9_4 + y_9_5  = 1
 c16:  y_10_1 + y_10_2 + y_10_3 + y_10_4 + y_10_5  = 0
 c17:  y_11_1 + y_11_2 + y_11_3 + y_11_4 + y_11_5  = 0
 c18:  y_12_1 + y_12_2 + y_12_3 + y_12_4 + y_12_5  = 1
 c19:  y_13_1 + y_13_2 + y_13_3 + y_13_4 + y_13_5  = 0
 c20:  y_14_1 + y_14_2 + y_14_3 + y_14_4 + y_14_5  = 1
 c21:  y_15_1 + y_15_2 + y_15_3 + y_15_4 + y_15_5  = 1
 c22:  y_16_1 + y_16_2 + y_16_3 + y_16_4 + y_16_5  = 0
 c23:  y_17_1 + y_17_2 + y_17_3 + y_17_4 + y_17_5  = 0
 c24:  y_18_1 + y_18_2 + y_18_3 + y_18_4 + y_18_5  = 1
 c25:  y_19_1 + y_19_2 + y_19_3 + y_19_4 + y_19_5  = 1
 c26:  y_20_1 + y_20_2 + y_20_3 + y_20_4 + y_20_5  = 1
 c27:  y_21_1 + y_21_2 + y_21_3 + y_21_4 + y_21_5  = 0
 c28:  y_22_1 + y_22_2 + y_22_3 + y_22_4 + y_22_5  = 0
 c29:  y_23_1 + y_23_2 + y_23_3 + y_23_4 + y_23_5  = 0
 c30:  y_24_1 + y_24_2 + y_24_3 + y_24_4 + y_24_5  = 1
 c31:  y_25_1 + y_25_2 + y_25_3 + y_25_4 + y_25_5  = 1
 c32:  y_1_1 <= 1
 c33:  y_1_2 <= 1
 c34:  y_1_3 <= 1
 c35:  y_1_4 <= 1
 c36:  y_1_5 <= 1
 c37:  y_2_1 <= 1
 c38:  y_2_2 <= 1
 c39:  y_2_3 <= 1
 c40:  y_2_4 <= 1
 c41:  y_2_5 <= 1
 c42:  y_3_1 <= 1
 c43:  y_3_2 <= 1
 c44:  y_3_3 <= 1
 c45:  y_3_4 <= 1
 c46:  y_3_5 <= 1
 c47:  y_4_1 <= 1
 c48:  y_4_2 <= 1
 c49:  y_4_3 <= 1
 c50:  y_4_4 <= 1
 c51:  y_4_5 <= 1
 c52:  y_5_1 <= 1
 c53:  y_5_2 <= 1
 c54:  y_5_3 <= 1
 c55:  y_5_4 <= 1
 c56:  y_5_5 <= 1
 c57:  y_6_1 <= 1
 c58:  y_6_2 <= 1
 c59:  y_6_3 <= 1
 c60:  y_6_4 <= 1
 c61:  y_6_5 <= 1
 c62:  y_7_1 <= 1
 c63:  y_7_2 <= 1
 c64:  y_7_3 <= 1
 c65:  y_7_4 <= 1
 c66:  y_7_5 <= 1
 c67:  y_8_1 <= 1
 c68:  y_8_2 <= 1
 c69:  y_8_3 <= 1
 c70:  y_8_4 <= 1
 c71:  y_8_5 <= 1
 c72:  y_9_1 <= 1
 c73:  y_9_2 <= 1
 c74:  y_9_3 <= 1
 c75:  y_9_4 <= 1
 c76:  y_9_5 <= 1
 c77:  y_10_1 <= 1
 c78:  y_10_2 <= 1
 c79:  y_10_3 <= 1
 c80:  y_10_4 <= 1
 c81:  y_10_5 <= 1
 c82:  y_11_1 <= 1
 c83:  y_11_2 <= 1
 c84:  y_11_3 <= 1
 c85:  y_11_4 <= 1
 c86:  y_11_5 <= 1
 c87:  y_12_1 <= 1
 c88:  y_12_2 <= 1
 c89:  y_12_3 <= 1
 c90:  y_12_4 <= 1
 c91:  y_12_5 <= 1
 c92:  y_13_1 <= 1
 c93:  y_13_2 <= 1
 c94:  y_13_3 <= 1
 c95:  y_13_4 <= 1
 c96:  y_13_5 <= 1
 c97:  y_14_1 <= 1
 c98:  y_14_2 <= 1
 c99:  y_14_3 <= 1
 c100: y_14_4 <= 1
 c101: y_14_5 <= 1
 c102: y_15_1 <= 1
 c103: y_15_2 <= 1
 c104: y_15_3 <= 1
 c105: y_15_4 <= 1
 c106: y_15_5 <= 1
 c107: y_16_1 <= 1
 c108: y_16_2 <= 1
 c109: y_16_3 <= 1
 c110: y_16_4 <= 1
 c111: y_16_5 <= 1
 c112: y_17_1 <= 1
 c113: y_17_2 <= 1
 c114: y_17_3 <= 1
 c115: y_17_4 <= 1
 c116: y_17_5 <= 1
 c117: y_18_1 <= 1
 c118: y_18_2 <= 1
 c119: y_18_3 <= 1
 c120: y_18_4 <= 1
 c121: y_18_5 <= 1
 c122: y_19_1 <= 1
 c123: y_19_2 <= 1
 c124: y_19_3 <= 1
 c125: y_19_4 <= 1
 c126: y_19_5 <= 1
 c127: y_20_1 <= 1
 c128: y_20_2 <= 1
 c129: y_20_3 <= 1
 c130: y_20_4 <= 1
 c131: y_20_5 <= 1
 c132: y_21_1 <= 1
 c133: y_21_2 <= 1
 c134: y_21_3 <= 1
 c135: y_21_4 <= 1
 c136: y_21_5 <= 1
 c137: y_22_1 <= 1
 c138: y_22_2 <= 1
 c139: y_22_3 <= 1
 c140: y_22_4 <= 1
 c141: y_22_5 <= 1
 c142: y_23_1 <= 1
 c143: y_23_2 <= 1
 c144: y_23_3 <= 1
 c145: y_23_4 <= 1
 c146: y_23_5 <= 1
 c147: y_24_1 <= 1
 c148: y_24_2 <= 1
 c149: y_24_3 <= 1
 c150: y_24_4 <= 1
 c151: y_24_5 <= 1
 c152: y_25_1 <= 1
 c153: y_25_2 <= 1
 c154: y_25_3 <= 1
 c155: y_25_4 <= 1
 c156: y_25_5 <= 1
 s156: 21 y_1_2 + 13 y_1_3 + 13 y_1_4 + 15 y_2_1 + 11 y_2_2 + 15 y_2_3
       + 8 y_2_4 + 3 y_3_1 + 21 y_3_2 + 7 y_3_3 + 13 y_4_1 + 22 y_4_2
       + 16 y_4_3 + 5 y_4_4 + 7 y_5_1 + 22 y_5_2 + 10 y_5_3 + 5 y_5_4
       + 18 y_6_1 + 4 y_6_2 + y_6_3 + 23 y_6_4 + 6 y_7_1 + 8 y_7_2 + 16 y_7_3
       + 3 y_7_4 + 14 y_8_1 + 21 y_8_2 + 5 y_8_3 + 16 y_8_4 + 21 y_9_1
       + 6 y_9_2 + y_9_3 + 8 y_9_4 + 16 y_10_1 + 14 y_10_2 + 10 y_10_3
       + 12 y_10_4 + 8 y_11_1 + 20 y_11_2 + 11 y_11_3 + 15 y_11_4 + 11 y_12_1
       + 4 y_12_2 + 6 y_12_3 + 15 y_12_4 + 2 y_13_1 + 19 y_13_2 + 10 y_13_3
       + 2 y_13_4 + 14 y_14_1 + 20 y_14_2 + 12 y_14_3 + 6 y_15_1 + y_15_2
       + 15 y_15_3 + 23 y_15_4 + 11 y_16_1 + 21 y_16_2 + 2 y_16_3 + 15 y_16_4
       + 17 y_17_1 + 16 y_17_2 + 2 y_17_3 + 13 y_17_4 + 15 y_18_1 + 5 y_18_2
       + 10 y_18_3 + 19 y_18_4 + 9 y_19_1 + 8 y_19_2 + 7 y_19_4 + 21 y_20_1
       + 23 y_20_2 + 16 y_20_3 + 14 y_20_4 + 14 y_21_1 + 12 y_21_2 + 5 y_21_3
       + 2 y_21_4 + 21 y_22_1 + 12 y_22_2 + 7 y_22_3 + 12 y_22_4 + 2 y_23_1
       + 10 y_23_2 + 9 y_23_3 + 10 y_23_4 + 20 y_24_1 + 21 y_24_2 + 7 y_24_3
       + 20 y_24_4 + 23 y_25_1 + 18 y_25_2 + y_25_3 + 9 y_25_4 - x_1_0 - x_2_0
       - x_3_0 - x_4_0 <= 320
 s157: 21 y_1_2 + 15 y_1_3 + 13 y_1_4 + 21 y_1_5 + 15 y_2_1 + 11 y_2_2
       + 17 y_2_3 + 8 y_2_4 + 14 y_2_5 + 3 y_3_1 + 21 y_3_2 + 8 y_3_3
       + 24 y_3_5 + 13 y_4_1 + 21 y_4_2 + 19 y_4_3 + 5 y_4_4 + 22 y_4_5
       + 8 y_5_1 + 22 y_5_2 + 12 y_5_3 + 5 y_5_4 + 11 y_5_5 + 18 y_6_1
       + 5 y_6_2 + 2 y_6_3 + 23 y_6_4 + 6 y_6_5 + 6 y_7_1 + 8 y_7_2 + 19 y_7_3
       + 3 y_7_4 + 15 y_7_5 + 14 y_8_1 + 20 y_8_2 + 5 y_8_3 + 16 y_8_4
       + 14 y_8_5 + 20 y_9_1 + 5 y_9_2 + y_9_3 + 8 y_9_4 + 3 y_9_5 + 15 y_10_1
       + 13 y_10_2 + 11 y_10_3 + 11 y_10_4 + 21 y_10_5 + 8 y_11_1 + 19 y_11_2
       + 13 y_11_3 + 15 y_11_4 + 12 y_11_5 + 11 y_12_1 + 4 y_12_2 + 8 y_12_3
       + 15 y_12_4 + 11 y_12_5 + 2 y_13_1 + 18 y_13_2 + 11 y_13_3 + 2 y_13_4
       + 9 y_13_5 + 14 y_14_1 + 19 y_14_2 + 14 y_14_3 + 16 y_14_5 + 6 y_15_1
       + y_15_2 + 18 y_15_3 + 23 y_15_4 + y_15_5 + 11 y_16_1 + 20 y_16_2
       + 2 y_16_3 + 15 y_16_4 + 17 y_16_5 + 17 y_17_1 + 16 y_17_2 + 2 y_17_3
       + 13 y_17_4 + 3 y_17_5 + 15 y_18_1 + 5 y_18_2 + 12 y_18_3 + 19 y_18_4
       + 7 y_18_5 + 10 y_19_1 + 8 y_19_2 + 8 y_19_4 + 14 y_19_5 + 22 y_20_1
       + 23 y_20_2 + 20 y_20_3 + 14 y_20_4 + 15 y_20_5 + 13 y_21_1 + 12 y_21_2
       + 6 y_21_3 + 2 y_21_4 + 22 y_21_5 + 21 y_22_1 + 12 y_22_2 + 9 y_22_3
       + 12 y_22_4 + 17 y_22_5 + 2 y_23_1 + 9 y_23_2 + 11 y_23_3 + 10 y_23_4
       + 9 y_23_5 + 20 y_24_1 + 21 y_24_2 + 8 y_24_3 + 20 y_24_4 + 21 y_24_5
       + 22 y_25_1 + 17 y_25_2 + y_25_3 + 9 y_25_4 + 22 y_25_5 - x_1_0 - x_2_0
       - x_3_0 - x_4_0 - x_5_0 <= 349
Bounds
      y0 Free
End
